
Gurobi 10.0.3 (win64) logging started Sat Nov  9 16:28:17 2024

Set parameter LogFile to value "r3.probability.lp.log"
Gurobi Optimizer version 10.0.3 build v10.0.3rc0 (win64)

CPU model: 12th Gen Intel(R) Core(TM) i5-1240P, instruction set [SSE2|AVX|AVX2]
Thread count: 12 physical cores, 16 logical processors, using up to 2 threads

Optimize a model with 985 rows, 616 columns and 6688 nonzeros
Model fingerprint: 0xe96f754a
Variable types: 0 continuous, 616 integer (616 binary)
Coefficient statistics:
  Matrix range     [1e+00, 1e+01]
  Objective range  [1e+00, 2e+00]
  Bounds range     [1e+00, 1e+00]
  RHS range        [1e+00, 1e+00]
Presolve removed 224 rows and 256 columns
Presolve time: 0.01s
Presolved: 761 rows, 360 columns, 6176 nonzeros
Variable types: 0 continuous, 360 integer (360 binary)
Found heuristic solution: objective 61.0000000
Found heuristic solution: objective 8.0000000

Root relaxation: objective 0.000000e+00, 2 iterations, 0.00 seconds (0.00 work units)

    Nodes    |    Current Node    |     Objective Bounds      |     Work
 Expl Unexpl |  Obj  Depth IntInf | Incumbent    BestBd   Gap | It/Node Time

     0     0    0.00000    0    1    8.00000    0.00000   100%     -    0s
H    0     0                       4.0000000    0.00000   100%     -    0s
     0     0    0.00000    0    1    4.00000    0.00000   100%     -    0s
     0     0    0.00000    0    1    4.00000    0.00000   100%     -    0s
     0     0    0.00000    0    1    4.00000    0.00000   100%     -    0s
     0     0    0.00000    0    1    4.00000    0.00000   100%     -    0s
     0     0    0.00000    0    1    4.00000    0.00000   100%     -    0s
     0     0    0.00000    0    1    4.00000    0.00000   100%     -    0s
     0     2    1.00000    0    1    4.00000    1.00000  75.0%     -    0s

Cutting planes:
  Gomory: 2
  Cover: 5

Explored 65 nodes (420 simplex iterations) in 0.10 seconds (0.12 work units)
Thread count was 2 (of 16 available processors)

Solution count 3: 4 8 61 

Optimal solution found (tolerance 1.00e-04)
Best objective 4.000000000000e+00, best bound 4.000000000000e+00, gap 0.0000%
